p edge 250 3100
e 0 9
e 0 14
e 0 20
e 0 23
e 0 25
e 0 28
e 0 33
e 0 45
e 0 47
e 0 48
e 0 73
e 0 77
e 0 78
e 0 83
e 0 84
e 0 89
e 0 93
e 0 111
e 0 120
e 0 125
e 0 147
e 0 153
e 0 162
e 0 207
e 0 209
e 0 212
e 0 230
e 0 231
e 0 240
e 0 245
e 1 3
e 1 20
e 1 31
e 1 40
e 1 88
e 1 106
e 1 127
e 1 129
e 1 133
e 1 135
e 1 136
e 1 147
e 1 155
e 1 183
e 1 195
e 1 196
e 1 202
e 1 219
e 1 229
e 1 237
e 1 239
e 2 6
e 2 12
e 2 13
e 2 14
e 2 28
e 2 35
e 2 43
e 2 48
e 2 55
e 2 95
e 2 100
e 2 102
e 2 108
e 2 122
e 2 126
e 2 139
e 2 141
e 2 151
e 2 157
e 2 177
e 2 183
e 2 189
e 2 193
e 2 218
e 2 221
e 3 47
e 3 65
e 3 70
e 3 115
e 3 130
e 3 133
e 3 177
e 3 183
e 3 195
e 3 212
e 3 213
e 3 218
e 3 235
e 3 241
e 3 243
e 3 248
e 4 20
e 4 21
e 4 53
e 4 57
e 4 58
e 4 62
e 4 75
e 4 76
e 4 81
e 4 100
e 4 116
e 4 119
e 4 122
e 4 125
e 4 137
e 4 140
e 4 156
e 4 162
e 4 163
e 4 169
e 4 175
e 4 180
e 4 206
e 4 220
e 4 224
e 4 229
e 4 233
e 4 245
e 5 19
e 5 21
e 5 22
e 5 29
e 5 40
e 5 43
e 5 45
e 5 59
e 5 67
e 5 79
e 5 90
e 5 94
e 5 97
e 5 108
e 5 135
e 5 161
e 5 173
e 5 177
e 5 205
e 5 207
e 5 218
e 5 224
e 5 226
e 5 236
e 6 10
e 6 15
e 6 30
e 6 32
e 6 53
e 6 54
e 6 60
e 6 87
e 6 105
e 6 107
e 6 134
e 6 135
e 6 169
e 6 175
e 6 178
e 6 180
e 6 181
e 6 195
e 6 201
e 6 202
e 6 216
e 6 223
e 6 239
e 6 242
e 7 10
e 7 11
e 7 38
e 7 39
e 7 53
e 7 60
e 7 91
e 7 102
e 7 106
e 7 107
e 7 117
e 7 120
e 7 134
e 7 145
e 7 147
e 7 155
e 7 160
e 7 203
e 7 246
e 7 249
e 8 13
e 8 22
e 8 25
e 8 29
e 8 50
e 8 64
e 8 85
e 8 89
e 8 114
e 8 128
e 8 130
e 8 133
e 8 144
e 8 151
e 8 163
e 8 164
e 8 173
e 8 179
e 8 190
e 8 211
e 8 223
e 8 226
e 8 229
e 8 237
e 8 244
e 8 245
e 9 18
e 9 26
e 9 45
e 9 51
e 9 57
e 9 61
e 9 62
e 9 63
e 9 70
e 9 73
e 9 88
e 9 93
e 9 101
e 9 123
e 9 124
e 9 139
e 9 159
e 9 164
e 9 173
e 9 176
e 9 177
e 9 178
e 9 187
e 9 189
e 9 196
e 9 202
e 9 221
e 9 226
e 10 13
e 10 15
e 10 17
e 10 25
e 10 32
e 10 38
e 10 50
e 10 52
e 10 64
e 10 75
e 10 98
e 10 100
e 10 103
e 10 107
e 10 109
e 10 115
e 10 116
e 10 143
e 10 144
e 10 145
e 10 164
e 10 168
e 10 172
e 10 174
e 10 183
e 10 192
e 10 198
e 10 200
e 10 214
e 10 228
e 10 229
e 10 232
e 10 236
e 10 246
e 11 38
e 11 51
e 11 53
e 11 72
e 11 82
e 11 85
e 11 99
e 11 109
e 11 121
e 11 123
e 11 140
e 11 143
e 11 144
e 11 156
e 11 157
e 11 159
e 11 169
e 11 173
e 11 180
e 11 188
e 11 203
e 11 217
e 12 14
e 12 39
e 12 41
e 12 51
e 12 56
e 12 64
e 12 73
e 12 76
e 12 78
e 12 85
e 12 86
e 12 93
e 12 105
e 12 112
e 12 130
e 12 140
e 12 142
e 12 153
e 12 159
e 12 168
e 12 174
e 12 182
e 12 190
e 12 195
e 12 199
e 12 207
e 12 211
e 12 228
e 12 246
e 12 248
e 13 31
e 13 33
e 13 34
e 13 37
e 13 42
e 13 50
e 13 90
e 13 111
e 13 140
e 13 153
e 13 161
e 13 177
e 13 188
e 13 208
e 13 211
e 13 221
e 13 227
e 13 229
e 14 31
e 14 53
e 14 60
e 14 61
e 14 113
e 14 125
e 14 126
e 14 145
e 14 158
e 14 163
e 14 182
e 14 194
e 14 202
e 14 207
e 15 25
e 15 41
e 15 50
e 15 55
e 15 57
e 15 65
e 15 66
e 15 74
e 15 87
e 15 92
e 15 104
e 15 105
e 15 110
e 15 150
e 15 166
e 15 191
e 15 197
e 15 198
e 15 215
e 15 217
e 15 238
e 15 247
e 16 21
e 16 26
e 16 29
e 16 34
e 16 39
e 16 54
e 16 56
e 16 57
e 16 65
e 16 83
e 16 87
e 16 88
e 16 94
e 16 104
e 16 120
e 16 124
e 16 131
e 16 165
e 16 167
e 16 172
e 16 184
e 16 196
e 16 199
e 16 201
e 16 206
e 16 214
e 16 220
e 16 225
e 16 239
e 16 240
e 16 246
e 17 21
e 17 24
e 17 36
e 17 38
e 17 41
e 17 43
e 17 48
e 17 52
e 17 58
e 17 61
e 17 64
e 17 67
e 17 74
e 17 79
e 17 101
e 17 105
e 17 112
e 17 125
e 17 132
e 17 137
e 17 142
e 17 154
e 17 155
e 17 165
e 17 168
e 17 178
e 17 180
e 17 181
e 17 191
e 17 199
e 17 214
e 17 215
e 17 218
e 17 219
e 17 226
e 17 244
e 18 20
e 18 22
e 18 40
e 18 62
e 18 78
e 18 101
e 18 109
e 18 111
e 18 113
e 18 127
e 18 141
e 18 143
e 18 144
e 18 146
e 18 160
e 18 167
e 18 182
e 18 198
e 18 207
e 18 212
e 18 218
e 18 233
e 18 234
e 18 237
e 18 239
e 18 243
e 19 27
e 19 35
e 19 47
e 19 59
e 19 65
e 19 73
e 19 77
e 19 95
e 19 99
e 19 102
e 19 117
e 19 133
e 19 144
e 19 152
e 19 179
e 19 186
e 19 211
e 19 213
e 19 214
e 19 221
e 19 245
e 19 247
e 20 33
e 20 36
e 20 39
e 20 58
e 20 60
e 20 100
e 20 121
e 20 130
e 20 138
e 20 144
e 20 165
e 20 176
e 20 182
e 20 196
e 20 200
e 20 216
e 20 233
e 20 235
e 20 237
e 20 238
e 20 239
e 20 243
e 21 37
e 21 39
e 21 53
e 21 80
e 21 88
e 21 90
e 21 137
e 21 139
e 21 149
e 21 168
e 21 170
e 21 225
e 21 234
e 21 240
e 22 25
e 22 29
e 22 34
e 22 38
e 22 43
e 22 52
e 22 53
e 22 64
e 22 74
e 22 76
e 22 88
e 22 91
e 22 93
e 22 94
e 22 97
e 22 99
e 22 138
e 22 159
e 22 171
e 22 181
e 22 183
e 22 189
e 22 201
e 22 208
e 22 212
e 22 216
e 22 234
e 22 237
e 22 242
e 22 247
e 23 27
e 23 42
e 23 53
e 23 82
e 23 93
e 23 100
e 23 107
e 23 114
e 23 141
e 23 164
e 23 173
e 23 177
e 23 182
e 23 188
e 23 197
e 23 209
e 23 217
e 23 222
e 23 231
e 24 27
e 24 42
e 24 73
e 24 76
e 24 92
e 24 101
e 24 105
e 24 108
e 24 110
e 24 112
e 24 113
e 24 120
e 24 143
e 24 145
e 24 148
e 24 169
e 24 178
e 24 188
e 24 203
e 24 207
e 24 210
e 24 211
e 24 224
e 24 230
e 24 240
e 24 248
e 25 28
e 25 30
e 25 52
e 25 55
e 25 70
e 25 72
e 25 75
e 25 83
e 25 99
e 25 110
e 25 118
e 25 129
e 25 135
e 25 137
e 25 157
e 25 159
e 25 162
e 25 164
e 25 167
e 25 170
e 25 175
e 25 177
e 25 178
e 25 185
e 25 199
e 25 210
e 25 211
e 25 218
e 25 222
e 25 230
e 25 240
e 25 244
e 25 249
e 26 41
e 26 50
e 26 61
e 26 71
e 26 93
e 26 94
e 26 115
e 26 126
e 26 133
e 26 138
e 26 174
e 26 186
e 26 194
e 26 206
e 26 222
e 26 232
e 26 237
e 26 246
e 27 47
e 27 49
e 27 54
e 27 61
e 27 75
e 27 95
e 27 115
e 27 141
e 27 146
e 27 157
e 27 189
e 27 191
e 27 210
e 27 215
e 27 220
e 27 230
e 28 30
e 28 31
e 28 35
e 28 36
e 28 50
e 28 71
e 28 76
e 28 83
e 28 116
e 28 118
e 28 120
e 28 128
e 28 131
e 28 135
e 28 136
e 28 145
e 28 165
e 28 180
e 28 181
e 28 189
e 28 202
e 28 216
e 28 226
e 28 236
e 28 237
e 29 30
e 29 34
e 29 68
e 29 96
e 29 98
e 29 105
e 29 106
e 29 107
e 29 124
e 29 132
e 29 135
e 29 137
e 29 141
e 29 146
e 29 175
e 29 177
e 29 199
e 29 206
e 29 222
e 29 234
e 29 242
e 30 56
e 30 65
e 30 66
e 30 73
e 30 83
e 30 85
e 30 95
e 30 103
e 30 113
e 30 136
e 30 139
e 30 147
e 30 169
e 30 179
e 30 201
e 30 215
e 30 222
e 30 233
e 30 234
e 30 248
e 31 33
e 31 42
e 31 44
e 31 52
e 31 85
e 31 96
e 31 100
e 31 104
e 31 110
e 31 116
e 31 131
e 31 133
e 31 163
e 31 181
e 31 187
e 31 189
e 31 190
e 31 194
e 31 195
e 31 228
e 32 41
e 32 48
e 32 61
e 32 81
e 32 87
e 32 107
e 32 130
e 32 138
e 32 156
e 32 161
e 32 162
e 32 163
e 32 168
e 32 181
e 32 184
e 32 187
e 32 195
e 32 210
e 32 228
e 32 232
e 32 242
e 33 42
e 33 47
e 33 51
e 33 81
e 33 88
e 33 103
e 33 145
e 33 152
e 33 157
e 33 172
e 33 201
e 33 203
e 33 205
e 33 211
e 33 215
e 33 225
e 33 226
e 33 228
e 34 45
e 34 48
e 34 49
e 34 62
e 34 64
e 34 66
e 34 67
e 34 73
e 34 81
e 34 97
e 34 99
e 34 111
e 34 113
e 34 129
e 34 131
e 34 134
e 34 137
e 34 144
e 34 146
e 34 149
e 34 186
e 34 189
e 34 190
e 34 217
e 35 45
e 35 51
e 35 58
e 35 60
e 35 64
e 35 109
e 35 119
e 35 121
e 35 133
e 35 146
e 35 156
e 35 168
e 35 173
e 35 183
e 35 188
e 35 193
e 35 209
e 35 216
e 35 220
e 35 223
e 35 243
e 36 63
e 36 74
e 36 77
e 36 99
e 36 108
e 36 128
e 36 140
e 36 153
e 36 169
e 36 170
e 36 183
e 36 185
e 36 215
e 36 219
e 36 236
e 36 237
e 36 245
e 37 39
e 37 47
e 37 63
e 37 83
e 37 103
e 37 104
e 37 115
e 37 135
e 37 136
e 37 152
e 37 154
e 37 159
e 37 179
e 37 196
e 37 201
e 37 202
e 37 209
e 37 212
e 38 59
e 38 71
e 38 72
e 38 79
e 38 81
e 38 95
e 38 100
e 38 105
e 38 130
e 38 146
e 38 154
e 38 161
e 38 167
e 38 171
e 38 173
e 38 190
e 38 195
e 38 202
e 38 206
e 38 209
e 38 220
e 38 235
e 38 239
e 39 52
e 39 66
e 39 76
e 39 86
e 39 107
e 39 159
e 39 186
e 39 188
e 39 207
e 39 221
e 39 226
e 39 235
e 39 247
e 40 60
e 40 67
e 40 78
e 40 84
e 40 88
e 40 105
e 40 118
e 40 125
e 40 162
e 40 168
e 40 185
e 40 212
e 40 224
e 40 225
e 40 249
e 41 63
e 41 77
e 41 94
e 41 97
e 41 99
e 41 112
e 41 114
e 41 121
e 41 129
e 41 141
e 41 144
e 41 171
e 41 190
e 41 197
e 41 199
e 41 208
e 41 229
e 41 231
e 41 236
e 41 249
e 42 50
e 42 51
e 42 57
e 42 71
e 42 91
e 42 94
e 42 100
e 42 102
e 42 133
e 42 140
e 42 144
e 42 149
e 42 151
e 42 155
e 42 170
e 42 175
e 42 185
e 42 188
e 42 192
e 42 198
e 42 201
e 42 203
e 42 205
e 42 207
e 42 217
e 42 232
e 42 238
e 42 239
e 42 241
e 42 247
e 43 50
e 43 61
e 43 73
e 43 77
e 43 87
e 43 89
e 43 99
e 43 101
e 43 127
e 43 156
e 43 167
e 43 173
e 43 177
e 43 183
e 43 184
e 43 189
e 43 195
e 43 206
e 43 225
e 43 230
e 43 244
e 44 63
e 44 68
e 44 71
e 44 80
e 44 101
e 44 106
e 44 112
e 44 113
e 44 147
e 44 150
e 44 159
e 44 160
e 44 161
e 44 164
e 44 174
e 44 175
e 44 177
e 44 185
e 44 187
e 44 190
e 44 214
e 44 218
e 44 220
e 44 239
e 44 247
e 44 248
e 45 51
e 45 75
e 45 98
e 45 120
e 45 121
e 45 132
e 45 133
e 45 135
e 45 138
e 45 148
e 45 152
e 45 160
e 45 173
e 45 176
e 45 178
e 45 195
e 45 203
e 45 221
e 45 240
e 45 246
e 45 247
e 46 54
e 46 55
e 46 60
e 46 86
e 46 98
e 46 102
e 46 106
e 46 120
e 46 126
e 46 145
e 46 147
e 46 182
e 46 190
e 46 193
e 46 208
e 46 224
e 46 248
e 47 59
e 47 83
e 47 95
e 47 108
e 47 124
e 47 140
e 47 171
e 47 196
e 47 200
e 47 202
e 47 206
e 47 212
e 47 217
e 47 222
e 47 226
e 47 240
e 47 245
e 48 52
e 48 67
e 48 70
e 48 125
e 48 143
e 48 148
e 48 150
e 48 178
e 48 182
e 48 185
e 48 194
e 48 198
e 48 208
e 49 66
e 49 74
e 49 75
e 49 76
e 49 85
e 49 90
e 49 98
e 49 100
e 49 101
e 49 112
e 49 115
e 49 117
e 49 131
e 49 142
e 49 147
e 49 149
e 49 153
e 49 157
e 49 165
e 49 173
e 49 175
e 49 179
e 49 192
e 49 203
e 49 221
e 49 229
e 49 230
e 49 239
e 49 248
e 50 64
e 50 65
e 50 71
e 50 73
e 50 75
e 50 86
e 50 97
e 50 98
e 50 116
e 50 117
e 50 124
e 50 142
e 50 152
e 50 160
e 50 171
e 50 179
e 50 187
e 50 197
e 50 224
e 50 233
e 50 246
e 51 64
e 51 81
e 51 86
e 51 90
e 51 104
e 51 110
e 51 113
e 51 117
e 51 119
e 51 126
e 51 143
e 51 160
e 51 164
e 51 166
e 51 168
e 51 169
e 51 170
e 51 178
e 51 184
e 51 213
e 51 228
e 51 230
e 51 232
e 51 233
e 52 57
e 52 59
e 52 70
e 52 76
e 52 84
e 52 101
e 52 108
e 52 109
e 52 116
e 52 117
e 52 121
e 52 144
e 52 146
e 52 171
e 52 175
e 52 188
e 52 190
e 52 195
e 52 216
e 52 227
e 52 230
e 52 245
e 52 249
e 53 69
e 53 75
e 53 79
e 53 84
e 53 92
e 53 95
e 53 100
e 53 102
e 53 111
e 53 112
e 53 116
e 53 133
e 53 141
e 53 165
e 53 167
e 53 168
e 53 172
e 53 183
e 53 185
e 53 194
e 53 195
e 53 199
e 53 217
e 53 224
e 53 240
e 53 241
e 54 61
e 54 62
e 54 64
e 54 66
e 54 85
e 54 88
e 54 90
e 54 99
e 54 100
e 54 124
e 54 150
e 54 152
e 54 156
e 54 166
e 54 199
e 54 207
e 54 212
e 54 215
e 54 218
e 54 245
e 55 70
e 55 79
e 55 84
e 55 88
e 55 89
e 55 95
e 55 100
e 55 101
e 55 105
e 55 116
e 55 118
e 55 119
e 55 125
e 55 136
e 55 151
e 55 155
e 55 158
e 55 160
e 55 184
e 55 190
e 55 200
e 55 201
e 55 216
e 55 239
e 55 240
e 55 242
e 55 244
e 55 248
e 56 63
e 56 76
e 56 81
e 56 83
e 56 84
e 56 87
e 56 103
e 56 112
e 56 117
e 56 124
e 56 151
e 56 169
e 56 179
e 56 183
e 56 191
e 56 192
e 56 194
e 56 196
e 56 206
e 57 71
e 57 73
e 57 78
e 57 82
e 57 89
e 57 90
e 57 120
e 57 125
e 57 126
e 57 136
e 57 147
e 57 167
e 57 180
e 57 183
e 57 190
e 57 215
e 57 225
e 57 237
e 57 249
e 58 64
e 58 70
e 58 85
e 58 90
e 58 94
e 58 98
e 58 99
e 58 105
e 58 111
e 58 115
e 58 121
e 58 138
e 58 139
e 58 145
e 58 146
e 58 157
e 58 178
e 58 208
e 58 218
e 58 226
e 58 229
e 59 61
e 59 72
e 59 79
e 59 94
e 59 106
e 59 112
e 59 117
e 59 125
e 59 141
e 59 163
e 59 187
e 59 192
e 59 195
e 59 203
e 60 62
e 60 69
e 60 74
e 60 80
e 60 92
e 60 93
e 60 94
e 60 97
e 60 99
e 60 175
e 60 178
e 60 217
e 61 91
e 61 103
e 61 107
e 61 111
e 61 113
e 61 114
e 61 143
e 61 149
e 61 156
e 61 162
e 61 167
e 61 174
e 61 188
e 61 191
e 61 197
e 61 205
e 61 206
e 61 219
e 61 222
e 61 229
e 62 71
e 62 92
e 62 99
e 62 130
e 62 133
e 62 148
e 62 149
e 62 155
e 62 159
e 62 164
e 62 178
e 62 196
e 62 205
e 62 229
e 62 236
e 62 240
e 63 70
e 63 101
e 63 114
e 63 117
e 63 119
e 63 128
e 63 145
e 63 146
e 63 149
e 63 167
e 63 188
e 63 195
e 63 204
e 63 206
e 63 207
e 63 216
e 63 223
e 63 234
e 63 238
e 63 243
e 63 244
e 63 245
e 64 82
e 64 97
e 64 100
e 64 103
e 64 134
e 64 137
e 64 140
e 64 141
e 64 149
e 64 169
e 64 187
e 64 190
e 64 195
e 64 198
e 64 200
e 65 93
e 65 94
e 65 117
e 65 120
e 65 123
e 65 130
e 65 135
e 65 138
e 65 151
e 65 155
e 65 158
e 65 165
e 65 168
e 65 179
e 65 216
e 65 222
e 65 232
e 65 242
e 65 246
e 66 78
e 66 91
e 66 102
e 66 104
e 66 107
e 66 139
e 66 144
e 66 146
e 66 164
e 66 168
e 66 169
e 66 180
e 66 189
e 66 190
e 66 197
e 66 213
e 66 229
e 66 237
e 66 239
e 67 81
e 67 84
e 67 88
e 67 100
e 67 112
e 67 124
e 67 126
e 67 131
e 67 144
e 67 146
e 67 150
e 67 157
e 67 159
e 67 161
e 67 167
e 67 229
e 68 70
e 68 86
e 68 92
e 68 97
e 68 102
e 68 120
e 68 121
e 68 136
e 68 147
e 68 185
e 68 190
e 68 192
e 68 204
e 68 237
e 68 240
e 68 244
e 69 83
e 69 85
e 69 93
e 69 103
e 69 111
e 69 122
e 69 158
e 69 161
e 69 167
e 69 179
e 69 180
e 69 183
e 69 185
e 69 187
e 69 189
e 69 194
e 69 218
e 69 224
e 69 229
e 69 248
e 70 75
e 70 109
e 70 126
e 70 157
e 70 161
e 70 164
e 70 177
e 70 183
e 70 191
e 70 210
e 70 228
e 70 231
e 71 73
e 71 76
e 71 79
e 71 105
e 71 117
e 71 118
e 71 120
e 71 139
e 71 162
e 71 167
e 71 174
e 71 178
e 71 181
e 71 194
e 71 195
e 71 240
e 71 245
e 72 80
e 72 81
e 72 84
e 72 90
e 72 94
e 72 101
e 72 134
e 72 137
e 72 139
e 72 141
e 72 172
e 72 193
e 72 194
e 72 202
e 72 213
e 72 221
e 72 235
e 72 238
e 73 101
e 73 103
e 73 105
e 73 114
e 73 116
e 73 136
e 73 143
e 73 144
e 73 151
e 73 154
e 73 157
e 73 170
e 73 172
e 73 176
e 73 179
e 73 182
e 73 208
e 73 212
e 73 241
e 73 249
e 74 83
e 74 96
e 74 104
e 74 106
e 74 109
e 74 126
e 74 131
e 74 140
e 74 142
e 74 154
e 74 165
e 74 185
e 74 186
e 74 190
e 74 226
e 74 234
e 74 243
e 74 246
e 75 87
e 75 98
e 75 101
e 75 109
e 75 135
e 75 141
e 75 147
e 75 148
e 75 149
e 75 156
e 75 159
e 75 160
e 75 176
e 75 186
e 75 190
e 75 203
e 75 217
e 75 220
e 75 221
e 75 232
e 75 235
e 76 86
e 76 89
e 76 102
e 76 111
e 76 147
e 76 159
e 76 170
e 76 175
e 76 178
e 76 180
e 76 192
e 76 205
e 76 220
e 76 230
e 76 232
e 76 244
e 77 125
e 77 126
e 77 142
e 77 151
e 77 169
e 77 180
e 77 181
e 77 195
e 77 199
e 77 207
e 77 216
e 77 217
e 77 232
e 77 233
e 77 239
e 77 248
e 78 80
e 78 89
e 78 94
e 78 95
e 78 104
e 78 111
e 78 117
e 78 126
e 78 151
e 78 154
e 78 161
e 78 168
e 78 183
e 78 184
e 78 185
e 78 186
e 78 187
e 78 192
e 78 194
e 78 201
e 78 202
e 78 218
e 78 222
e 78 248
e 79 80
e 79 84
e 79 88
e 79 93
e 79 94
e 79 99
e 79 122
e 79 125
e 79 147
e 79 155
e 79 157
e 79 160
e 79 172
e 79 197
e 79 201
e 79 209
e 79 215
e 79 217
e 79 218
e 79 230
e 80 84
e 80 90
e 80 100
e 80 105
e 80 112
e 80 133
e 80 135
e 80 146
e 80 147
e 80 151
e 80 181
e 80 182
e 80 184
e 80 191
e 80 195
e 80 205
e 80 223
e 80 226
e 80 227
e 80 237
e 80 244
e 81 91
e 81 111
e 81 112
e 81 118
e 81 132
e 81 152
e 81 167
e 81 171
e 81 209
e 81 216
e 81 219
e 81 223
e 81 240
e 81 248
e 82 84
e 82 103
e 82 122
e 82 123
e 82 126
e 82 132
e 82 134
e 82 135
e 82 160
e 82 176
e 82 188
e 82 194
e 82 217
e 82 224
e 82 227
e 82 247
e 83 91
e 83 104
e 83 109
e 83 111
e 83 114
e 83 125
e 83 135
e 83 141
e 83 146
e 83 162
e 83 167
e 83 175
e 83 193
e 83 201
e 83 206
e 83 214
e 83 240
e 83 246
e 83 248
e 84 94
e 84 114
e 84 136
e 84 137
e 84 155
e 84 166
e 84 179
e 84 197
e 84 198
e 84 201
e 84 210
e 84 212
e 84 222
e 84 226
e 84 240
e 85 101
e 85 112
e 85 119
e 85 128
e 85 137
e 85 145
e 85 153
e 85 160
e 85 165
e 85 208
e 85 210
e 85 220
e 85 232
e 85 234
e 86 107
e 86 113
e 86 122
e 86 124
e 86 141
e 86 148
e 86 149
e 86 164
e 86 190
e 86 201
e 86 203
e 86 229
e 86 242
e 87 90
e 87 95
e 87 101
e 87 107
e 87 120
e 87 121
e 87 123
e 87 132
e 87 142
e 87 149
e 87 178
e 87 180
e 87 199
e 87 202
e 87 210
e 87 239
e 88 89
e 88 93
e 88 94
e 88 112
e 88 117
e 88 129
e 88 133
e 88 138
e 88 141
e 88 146
e 88 167
e 88 201
e 88 212
e 88 214
e 88 218
e 88 219
e 88 229
e 88 230
e 88 235
e 89 112
e 89 127
e 89 140
e 89 149
e 89 158
e 89 169
e 89 188
e 89 193
e 89 211
e 89 247
e 90 95
e 90 103
e 90 105
e 90 135
e 90 136
e 90 141
e 90 143
e 90 147
e 90 150
e 90 153
e 90 160
e 90 174
e 90 201
e 90 211
e 90 222
e 90 228
e 90 232
e 90 233
e 90 234
e 90 244
e 91 124
e 91 125
e 91 128
e 91 129
e 91 130
e 91 150
e 91 161
e 91 162
e 91 176
e 91 191
e 91 195
e 91 201
e 91 202
e 91 205
e 91 219
e 91 221
e 91 227
e 91 237
e 92 99
e 92 103
e 92 104
e 92 110
e 92 116
e 92 117
e 92 122
e 92 127
e 92 132
e 92 145
e 92 152
e 92 155
e 92 156
e 92 160
e 92 167
e 92 194
e 92 200
e 92 212
e 92 214
e 92 216
e 92 220
e 92 224
e 92 226
e 92 234
e 92 241
e 93 103
e 93 124
e 93 155
e 93 158
e 93 160
e 93 167
e 93 177
e 93 181
e 93 189
e 93 201
e 93 225
e 93 228
e 93 230
e 93 234
e 93 240
e 93 245
e 94 110
e 94 128
e 94 140
e 94 152
e 94 154
e 94 163
e 94 173
e 94 177
e 94 221
e 94 225
e 94 239
e 94 243
e 95 99
e 95 113
e 95 117
e 95 120
e 95 125
e 95 127
e 95 133
e 95 172
e 95 188
e 95 209
e 95 211
e 95 223
e 95 231
e 95 249
e 96 99
e 96 106
e 96 115
e 96 126
e 96 127
e 96 158
e 96 166
e 96 169
e 96 186
e 96 187
e 96 208
e 96 222
e 96 225
e 96 240
e 97 98
e 97 116
e 97 120
e 97 127
e 97 134
e 97 139
e 97 143
e 97 145
e 97 148
e 97 155
e 97 170
e 97 171
e 97 178
e 97 224
e 97 226
e 97 233
e 97 242
e 97 244
e 97 245
e 97 248
e 98 101
e 98 105
e 98 110
e 98 116
e 98 121
e 98 126
e 98 131
e 98 147
e 98 148
e 98 175
e 98 202
e 98 208
e 98 209
e 98 240
e 98 246
e 99 115
e 99 116
e 99 117
e 99 120
e 99 144
e 99 147
e 99 153
e 99 154
e 99 192
e 99 202
e 99 218
e 99 240
e 99 242
e 99 249
e 100 108
e 100 117
e 100 130
e 100 147
e 100 165
e 100 173
e 100 192
e 100 197
e 100 198
e 100 210
e 100 229
e 100 236
e 100 237
e 100 243
e 101 133
e 101 143
e 101 164
e 101 181
e 101 186
e 101 187
e 101 195
e 101 198
e 101 208
e 101 220
e 101 224
e 101 242
e 102 104
e 102 107
e 102 119
e 102 131
e 102 134
e 102 137
e 102 140
e 102 151
e 102 153
e 102 155
e 102 181
e 102 189
e 102 195
e 102 223
e 102 245
e 103 112
e 103 114
e 103 125
e 103 133
e 103 135
e 103 140
e 103 147
e 103 153
e 103 155
e 103 160
e 103 163
e 103 167
e 103 182
e 103 186
e 103 192
e 103 195
e 103 196
e 103 208
e 103 213
e 103 225
e 103 240
e 104 112
e 104 113
e 104 118
e 104 132
e 104 147
e 104 156
e 104 179
e 104 181
e 104 184
e 104 196
e 104 197
e 104 210
e 104 221
e 104 224
e 104 225
e 104 233
e 104 243
e 104 246
e 105 108
e 105 145
e 105 146
e 105 148
e 105 158
e 105 174
e 105 178
e 105 185
e 105 189
e 105 191
e 105 198
e 105 202
e 105 235
e 105 238
e 106 111
e 106 130
e 106 133
e 106 146
e 106 152
e 106 155
e 106 158
e 106 171
e 106 185
e 106 189
e 106 190
e 106 212
e 106 229
e 106 245
e 107 115
e 107 131
e 107 138
e 107 139
e 107 148
e 107 149
e 107 158
e 107 164
e 107 165
e 107 178
e 107 179
e 107 185
e 107 195
e 107 203
e 107 216
e 107 229
e 107 244
e 107 248
e 108 113
e 108 122
e 108 127
e 108 149
e 108 161
e 108 166
e 108 173
e 108 181
e 108 183
e 108 185
e 108 186
e 108 188
e 108 189
e 108 198
e 108 205
e 108 239
e 108 242
e 108 246
e 109 113
e 109 114
e 109 151
e 109 154
e 109 160
e 109 173
e 109 183
e 109 216
e 109 237
e 109 242
e 110 130
e 110 139
e 110 145
e 110 162
e 110 164
e 110 171
e 110 183
e 110 207
e 110 213
e 111 118
e 111 124
e 111 126
e 111 127
e 111 155
e 111 160
e 111 175
e 111 180
e 111 193
e 111 198
e 111 199
e 111 215
e 111 216
e 111 219
e 111 225
e 111 232
e 112 149
e 112 155
e 112 169
e 112 175
e 112 183
e 112 190
e 112 193
e 112 195
e 112 210
e 112 212
e 112 219
e 112 236
e 112 237
e 113 117
e 113 147
e 113 162
e 113 178
e 113 209
e 113 215
e 113 216
e 113 221
e 113 226
e 113 236
e 113 239
e 113 243
e 114 144
e 114 148
e 114 153
e 114 154
e 114 156
e 114 157
e 114 158
e 114 162
e 114 186
e 114 192
e 114 207
e 114 215
e 114 222
e 114 235
e 114 243
e 114 246
e 114 247
e 115 119
e 115 123
e 115 127
e 115 136
e 115 149
e 115 155
e 115 162
e 115 174
e 115 178
e 115 185
e 115 189
e 115 199
e 115 201
e 115 202
e 115 207
e 115 233
e 115 241
e 115 242
e 116 118
e 116 161
e 116 165
e 116 169
e 116 202
e 116 203
e 116 220
e 116 221
e 116 223
e 116 227
e 116 229
e 116 235
e 116 241
e 117 124
e 117 143
e 117 145
e 117 151
e 117 159
e 117 171
e 117 172
e 117 180
e 117 185
e 117 195
e 117 199
e 117 210
e 117 226
e 117 237
e 117 244
e 117 245
e 118 121
e 118 124
e 118 163
e 118 178
e 118 185
e 118 188
e 118 194
e 118 228
e 119 120
e 119 132
e 119 146
e 119 147
e 119 158
e 119 166
e 119 189
e 119 190
e 119 196
e 119 216
e 119 226
e 120 121
e 120 137
e 120 141
e 120 149
e 120 160
e 120 179
e 120 197
e 120 212
e 120 213
e 120 221
e 120 227
e 120 229
e 120 236
e 120 237
e 120 247
e 121 137
e 121 145
e 121 146
e 121 147
e 121 176
e 121 181
e 121 183
e 121 195
e 121 209
e 121 214
e 121 215
e 121 221
e 121 245
e 122 125
e 122 129
e 122 141
e 122 142
e 122 151
e 122 153
e 122 166
e 122 168
e 122 180
e 122 181
e 122 184
e 122 191
e 122 227
e 122 247
e 123 142
e 123 144
e 123 164
e 123 168
e 123 173
e 123 181
e 123 199
e 123 200
e 123 207
e 123 212
e 123 215
e 123 219
e 123 229
e 124 131
e 124 132
e 124 133
e 124 142
e 124 152
e 124 161
e 124 177
e 124 196
e 124 203
e 124 217
e 124 225
e 125 132
e 125 148
e 125 151
e 125 153
e 125 157
e 125 183
e 125 191
e 125 200
e 125 205
e 125 210
e 125 237
e 125 245
e 125 247
e 126 128
e 126 132
e 126 139
e 126 144
e 126 154
e 126 156
e 126 163
e 126 170
e 126 207
e 126 225
e 126 229
e 126 246
e 127 128
e 127 129
e 127 140
e 127 166
e 127 191
e 127 199
e 127 203
e 127 234
e 127 238
e 127 248
e 128 136
e 128 150
e 128 155
e 128 159
e 128 165
e 128 194
e 128 203
e 128 214
e 128 221
e 128 238
e 129 163
e 129 175
e 129 179
e 129 180
e 129 184
e 129 195
e 129 196
e 129 199
e 129 213
e 129 225
e 129 226
e 129 236
e 129 240
e 130 141
e 130 160
e 130 161
e 130 165
e 130 168
e 130 195
e 130 198
e 130 214
e 130 218
e 130 230
e 130 233
e 130 242
e 131 160
e 131 163
e 131 187
e 131 197
e 131 198
e 131 208
e 132 138
e 132 149
e 132 155
e 132 161
e 132 170
e 132 174
e 132 187
e 132 188
e 132 192
e 132 204
e 132 207
e 132 220
e 132 236
e 132 245
e 132 248
e 133 134
e 133 138
e 133 144
e 133 145
e 133 154
e 133 156
e 133 170
e 133 177
e 133 184
e 133 197
e 133 206
e 133 207
e 133 209
e 133 212
e 133 234
e 133 236
e 133 245
e 133 249
e 134 137
e 134 176
e 134 194
e 134 195
e 134 213
e 134 227
e 134 229
e 134 238
e 135 140
e 135 147
e 135 153
e 135 154
e 135 202
e 135 215
e 135 228
e 135 240
e 135 248
e 136 158
e 136 169
e 136 193
e 136 214
e 136 226
e 136 234
e 136 248
e 137 142
e 137 145
e 137 161
e 137 164
e 137 180
e 137 183
e 137 187
e 137 205
e 137 212
e 137 218
e 138 161
e 138 174
e 138 177
e 138 189
e 138 192
e 138 193
e 138 195
e 138 198
e 138 205
e 138 229
e 138 238
e 138 247
e 139 149
e 139 157
e 139 179
e 139 201
e 139 205
e 139 235
e 140 145
e 140 148
e 140 154
e 140 161
e 140 170
e 140 179
e 140 218
e 140 237
e 141 148
e 141 165
e 141 166
e 141 170
e 141 184
e 141 211
e 141 218
e 141 234
e 142 154
e 142 174
e 142 183
e 142 187
e 142 189
e 142 194
e 142 200
e 142 202
e 142 207
e 142 210
e 142 221
e 142 229
e 142 249
e 143 147
e 143 168
e 143 178
e 143 186
e 143 192
e 143 199
e 143 200
e 143 205
e 143 211
e 143 218
e 143 225
e 143 242
e 144 150
e 144 162
e 144 163
e 144 171
e 144 174
e 144 176
e 144 181
e 144 197
e 144 221
e 144 223
e 144 232
e 144 235
e 144 236
e 144 248
e 145 171
e 145 181
e 145 198
e 145 201
e 145 204
e 145 206
e 145 210
e 145 211
e 145 224
e 145 225
e 145 229
e 146 154
e 146 156
e 146 173
e 146 177
e 146 182
e 146 193
e 146 243
e 147 161
e 147 172
e 147 173
e 147 175
e 147 179
e 147 185
e 147 196
e 147 231
e 147 239
e 147 249
e 148 151
e 148 153
e 148 159
e 148 171
e 148 172
e 148 178
e 148 201
e 148 215
e 148 227
e 148 231
e 148 232
e 148 234
e 149 155
e 149 169
e 149 194
e 149 198
e 149 199
e 149 211
e 149 216
e 149 233
e 149 248
e 150 168
e 150 175
e 150 183
e 150 205
e 150 238
e 150 244
e 151 164
e 151 176
e 151 199
e 151 218
e 151 225
e 151 228
e 151 247
e 152 161
e 152 178
e 152 179
e 152 181
e 152 195
e 152 205
e 152 216
e 152 237
e 153 156
e 153 170
e 153 179
e 153 182
e 153 203
e 153 216
e 153 217
e 153 239
e 153 243
e 154 156
e 154 158
e 154 174
e 154 186
e 154 194
e 154 212
e 154 225
e 154 238
e 155 159
e 155 177
e 155 194
e 155 206
e 155 210
e 155 223
e 155 225
e 155 235
e 155 237
e 155 242
e 156 163
e 156 185
e 156 198
e 156 213
e 156 221
e 156 246
e 157 159
e 157 162
e 157 174
e 157 181
e 157 208
e 157 209
e 157 214
e 157 235
e 157 246
e 157 249
e 158 160
e 158 168
e 158 178
e 158 202
e 158 204
e 158 216
e 158 219
e 158 221
e 158 240
e 158 242
e 159 171
e 159 180
e 159 186
e 159 190
e 159 206
e 159 209
e 159 213
e 159 224
e 159 226
e 159 229
e 159 249
e 160 175
e 160 189
e 160 210
e 160 240
e 160 246
e 161 187
e 161 192
e 161 194
e 161 199
e 161 236
e 161 241
e 162 164
e 162 181
e 162 189
e 162 200
e 162 201
e 162 232
e 162 242
e 162 248
e 163 177
e 163 178
e 163 190
e 163 192
e 163 198
e 163 202
e 163 206
e 163 227
e 163 239
e 163 240
e 164 180
e 164 203
e 164 212
e 164 219
e 164 220
e 165 186
e 165 193
e 165 210
e 165 212
e 165 224
e 166 172
e 166 174
e 166 180
e 166 192
e 166 193
e 166 207
e 166 211
e 166 225
e 166 242
e 166 248
e 167 196
e 167 200
e 167 202
e 167 207
e 167 227
e 167 236
e 167 249
e 168 195
e 168 211
e 168 218
e 168 228
e 168 240
e 169 178
e 169 186
e 169 210
e 169 216
e 169 246
e 170 173
e 170 190
e 170 196
e 170 200
e 170 217
e 170 218
e 170 230
e 170 237
e 170 239
e 171 181
e 171 189
e 171 190
e 171 194
e 171 199
e 171 210
e 171 212
e 171 222
e 171 234
e 171 246
e 172 178
e 172 198
e 172 213
e 172 220
e 172 222
e 173 188
e 173 198
e 173 208
e 173 213
e 173 219
e 173 228
e 173 245
e 174 184
e 174 206
e 174 219
e 174 223
e 174 225
e 174 226
e 174 228
e 174 233
e 174 244
e 175 181
e 175 187
e 175 222
e 175 230
e 175 248
e 176 178
e 176 188
e 176 189
e 176 206
e 176 207
e 176 220
e 176 227
e 176 243
e 176 247
e 177 191
e 177 193
e 177 197
e 177 226
e 177 227
e 177 228
e 177 229
e 177 232
e 177 237
e 177 239
e 178 218
e 178 227
e 178 245
e 178 247
e 179 188
e 179 194
e 179 197
e 179 201
e 179 216
e 179 219
e 179 227
e 179 228
e 179 249
e 180 188
e 180 200
e 180 202
e 180 213
e 180 219
e 180 220
e 180 226
e 181 188
e 181 193
e 181 227
e 181 244
e 182 184
e 182 200
e 182 212
e 182 239
e 182 242
e 183 198
e 183 221
e 183 241
e 184 195
e 184 205
e 184 214
e 184 238
e 184 245
e 185 194
e 185 200
e 185 206
e 185 212
e 185 224
e 185 229
e 185 233
e 185 242
e 186 200
e 186 209
e 186 210
e 186 232
e 187 197
e 187 199
e 187 201
e 187 218
e 187 230
e 187 231
e 187 243
e 187 246
e 188 189
e 188 220
e 188 227
e 188 228
e 188 238
e 188 245
e 189 191
e 189 194
e 189 196
e 189 203
e 189 209
e 189 216
e 189 222
e 189 231
e 189 234
e 189 247
e 190 205
e 190 222
e 190 235
e 191 194
e 191 201
e 191 202
e 191 221
e 191 226
e 191 227
e 191 228
e 191 233
e 191 238
e 191 245
e 192 202
e 192 213
e 192 215
e 192 224
e 192 239
e 192 240
e 192 248
e 193 194
e 193 197
e 193 203
e 193 206
e 193 227
e 193 236
e 193 237
e 193 238
e 193 248
e 194 196
e 194 197
e 194 201
e 194 221
e 194 232
e 194 233
e 195 199
e 195 208
e 195 211
e 195 216
e 195 242
e 196 205
e 196 210
e 196 214
e 196 215
e 196 227
e 196 231
e 197 200
e 197 208
e 197 210
e 197 211
e 197 243
e 197 245
e 198 202
e 198 204
e 198 208
e 198 212
e 198 226
e 198 240
e 199 201
e 199 234
e 199 235
e 199 242
e 200 201
e 200 205
e 200 208
e 200 219
e 200 223
e 200 224
e 200 242
e 201 202
e 201 205
e 201 208
e 201 216
e 202 209
e 202 213
e 202 219
e 202 234
e 202 242
e 202 243
e 203 206
e 203 221
e 203 225
e 203 231
e 203 242
e 203 248
e 204 207
e 204 242
e 204 243
e 204 248
e 205 212
e 205 225
e 205 233
e 205 240
e 205 242
e 205 247
e 206 207
e 206 215
e 206 228
e 206 233
e 207 210
e 207 214
e 207 215
e 207 223
e 207 231
e 208 213
e 208 226
e 209 217
e 209 220
e 209 242
e 209 246
e 210 223
e 210 232
e 211 217
e 211 220
e 211 224
e 211 236
e 212 233
e 212 239
e 212 241
e 213 236
e 213 240
e 213 249
e 214 221
e 214 228
e 215 223
e 215 227
e 215 242
e 216 226
e 216 241
e 216 247
e 217 237
e 217 238
e 217 242
e 217 246
e 218 232
e 218 237
e 219 220
e 219 221
e 219 239
e 220 222
e 221 236
e 222 241
e 224 235
e 224 239
e 224 241
e 225 236
e 225 248
e 225 249
e 226 231
e 226 243
e 228 232
e 228 247
e 228 249
e 229 246
e 229 249
e 230 231
e 230 241
e 232 233
e 233 243
e 234 237
e 235 248
e 236 237
e 236 247
e 237 246
e 237 247
e 238 247
e 239 240
e 240 243
e 241 247
e 242 246
e 243 248
e 246 249
